9
2147483647 76 7 56 48 95 58 35 19 
76 2147483647 57 21 96 56 7 67 63 
7 57 2147483647 10 73 12 24 41 40 
56 21 10 2147483647 99 46 80 60 32 
48 96 73 99 2147483647 78 96 73 25 
95 56 12 46 78 2147483647 22 79 11 
58 7 24 80 96 22 2147483647 41 54 
35 67 41 60 73 79 41 2147483647 36 
19 63 40 32 25 11 54 36 2147483647 
